problem_generation/data/GISP/train/er_n=62_m=1142_p=0.60_SET2_setparam=100.00_alpha=0.50_292.lp
maximize
OBJ:100x0 + 100x1 + 100x2 + 100x3 + 100x4 + 100x5 + 100x6 + 100x7 + 100x8 + 100x9 + 100x10 + 100x11 + 100x12 + 100x13 + 100x14 + 100x15 + 100x16 + 100x17 + 100x18 + 100x19 + 100x20 + 100x21 + 100x22 + 100x23 + 100x24 + 100x25 + 100x26 + 100x27 + 100x28 + 100x29 + 100x30 + 100x31 + 100x32 + 100x33 + 100x34 + 100x35 + 100x36 + 100x37 + 100x38 + 100x39 + 100x40 + 100x41 + 100x42 + 100x43 + 100x44 + 100x45 + 100x46 + 100x47 + 100x48 + 100x49 + 100x50 + 100x51 + 100x52 + 100x53 + 100x54 + 100x55 + 100x56 + 100x57 + 100x58 + 100x59 + 100x60 + 100x61 - y7_17 - y7_35 - y18_35 - y29_32 - y0_5 - y29_41 - y0_14 - y29_50 - y40_59 - y41_51 - y33_47 - y25_43 - y44_56 - y2_50 - y25_52 - y22_28 - y2_59 - y14_24 - y32_60 - y3_42 - y15_16 - y47_48 - y15_25 - y17_44 - y55_61 - y18_21 - y36_57 - y47_57 - y18_30 - y6_34 - y48_49 - y21_32 - y48_58 - y21_41 - y6_52 - y21_50 - y6_61 - y10_22 - y10_31 - y10_40 - y25_47 - y51_59 - y2_54 - y3_19 - y43_55 - y22_32 - y14_28 - y24_60 - y35_60 - y14_37 - y36_43 - y17_39 - y47_52 - y9_44 - y5_55 - y17_57 - y28_57 - y29_40 - y48_53 - y40_49 - y2_22 - y25_33 - y10_44 - y2_49 - y13_46 - y35_46 - y14_23 - y32_59 - y1_53 - y35_55 - y28_34 - y36_47 - y5_41 - y28_43 - y36_56 - y17_52 - y9_48 - y28_61 - y6_33 - y39_48 - y10_21 - y54_55 - y13_32 - y24_32 - y43_45 - y13_41 - y24_41 - y24_50 - y35_50 - y16_55 - y17_20 - y28_29 - y36_42 - y5_36 - y28_38 - y36_51 - y9_61 - y21_26 - y6_46 - y10_16 - y31_57 - y13_27 - y24_27 - y3_4 - y1_34 - y35_36 - y16_32 - y13_45 - y32_58 - y1_52 - y24_54 - y16_59 - y46_60 - y17_42 - y9_47 - y27_55 - y50_57 - y6_32 - y20_34 - y2_7 - y2_16 - y20_52 - y31_52 - y31_61 - y24_31 - y32_44 - y1_38 - y43_53 - y16_36 - y24_49 - y35_49 - y16_45 - y5_8 - y35_58 - y5_17 - y46_55 - y9_24 - y49_60 - y30_55 - y20_29 - y0_60 - y11_60 - y12_25 - y20_38 - y31_38 - y23_34 - y31_47 - y4_30 - y20_56 - y4_39 - y12_52 - y12_61 - y13_26 - y4_57 - y1_33 - y24_35 - y24_44 - y16_40 - y1_51 - y9_19 - y15_53 - y5_30 - y26_53 - y49_55 - y9_28 - y7_58 - y6_13 - y19_32 - y8_41 - y0_37 - y19_50 - y11_55 - y23_29 - y20_42 - y12_38 - y23_38 - y20_51 - y31_51 - y1_10 - y4_61 - y16_26 - y37_58 - y16_35 - y1_46 - y7_44 - y15_57 - y38_59 - y7_53 - y27_31 - y8_36 - y30_36 - y27_49 - y0_32 - y11_32 - y27_58 - y11_41 - y11_59 - y20_37 - y31_37 - y4_29 - y12_42 - y1_5 - y4_38 - y34_39 - y4_47 - y53_61 - y37_44 - y22_55 - y34_57 - y45_57 - y14_60 - y26_34 - y5_11 - y38_45 - y57_58 - y7_39 - y18_48 - y7_57 - y8_22 - y18_57 - y19_22 - y30_31 - y27_44 - y0_27 - y11_27 - y19_49 - y30_58 - y33_60 - y44_60 - y23_37 - y4_33 - y1_9 - y53_56 - y37_39 - y34_52 - y3_46 - y34_61 - y15_29 - y26_29 - y7_25 - y15_38 - y26_38 - y18_34 - y15_47 - y18_43 - y27_30 - y19_26 - y27_39 - y11_22 - y29_58 - y11_31 - y0_40 - y11_49 - y41_50 - y4_10 - y33_46 - y12_23 - y4_19 - y44_55 - y2_58 - y25_60 - y22_36 - y45_47 - y3_50 - y3_59 - y15_24 - y37_61 - y26_42 - y15_51 - y0_8 - y8_21 - y0_17 - y0_26 - y33_41 - y4_14 - y10_57 - y33_59 - y22_31 - y22_40 - y34_51 - y18_24 - y26_37 - y26_46 - y7_42 - y18_42 - y8_16 - y48_61 - y21_44 - y11_21 - y25_32 - y4_9 - y33_45 - y44_45 - y52_58 - y2_48 - y22_26 - y14_22 - y14_40 - y37_42 - y22_53 - y3_49 - y17_51 - y28_51 - y7_28 - y29_34 - y29_43 - y40_43 - y29_52 - y40_52 - y10_29 - y2_25 - y33_40 - y2_34 - y25_36 - y10_47 - y3_17 - y22_30 - y3_26 - y14_44 - y17_46 - y28_46 - y7_23 - y9_42 - y18_23 - y28_55 - y6_36 - y6_45 - y29_47 - y6_54 - y10_24 - y2_29 - y2_56 - y14_21 - y32_57 - y3_30 - y14_30 - y16_58 - y17_32 - y28_32 - y17_41 - y9_37 - y5_57 - y6_22 - y21_29 - y6_49 - y2_15 - y31_60 - y2_33 - y25_35 - y43_52 - y13_48 - y13_57 - y16_53 - y36_40 - y28_36 - y17_45 - y47_58 - y5_52 - y6_17 - y17_54 - y28_54 - y5_61 - y6_26 - y50_60 - y10_14 - y31_46 - y39_59 - y12_51 - y2_28 - y4_56 - y1_41 - y13_43 - y43_56 - y24_52 - y17_22 - y36_44 - y9_27 - y17_49 - y6_12 - y50_55 - y42_60 - y2_5 - y20_41 - y10_18 - y31_41 - y39_54 - y2_23 - y4_42 - y31_59 - y23_55 - y4_51 - y1_36 - y32_51 - y1_45 - y24_47 - y35_47 - y1_54 - y35_56 - y5_15 - y16_61 - y5_33 - y17_35 - y9_31 - y28_44 - y9_40 - y8_53 - y23_32 - y2_9 - y39_58 - y31_54 - y4_37 - y4_46 - y53_60 - y16_20 - y13_33 - y16_29 - y35_42 - y1_49 - y5_10 - y17_21 - y46_57 - y9_17 - y38_53 - y5_28 - y9_26 - y27_34 - y6_20 - y8_39 - y19_39 - y50_54 - y0_44 - y8_57 - y30_57 - y42_59 - y11_53 - y20_31 - y20_40 - y39_53 - y23_36 - y4_32 - y12_45 - y31_58 - y23_54 - y1_17 - y53_55 - y16_24 - y1_35 - y16_33 - y1_44 - y16_42 - y15_46 - y57_61 - y9_21 - y26_55 - y38_57 - y49_57 - y27_29 - y27_38 - y42_45 - y11_39 - y8_52 - y8_61 - y30_61 - y20_35 - y31_35 - y1_3 - y1_12 - y1_21 - y37_51 - y3_58 - y14_58 - y15_41 - y26_50 - y38_52 - y7_46 - y18_46 - y15_59 - y19_20 - y27_33 - y27_42 - y30_38 - y30_47 - y0_43 - y11_43 - y19_56 - y20_21 - y0_52 - y12_17 - y41_53 - y0_61 - y12_26 - y31_39 - y1_7 - y4_40 - y34_41 - y37_46 - y26_36 - y26_45 - y18_50 - y8_15 - y7_59 - y48_60 - y0_20 - y8_33 - y0_29 - y30_42 - y0_38 - y19_51 - y33_53 - y4_26 - y1_2 - y4_35 - y34_36 - y22_43 - y1_20 - y3_48 - y37_59 - y15_31 - y18_27 - y26_40 - y38_42 - y7_36 - y7_45 - y8_10 - y18_54 - y19_28 - y11_24 - y29_60 - y8_37 - y40_60 - y11_33 - y33_48 - y41_61 - y25_44 - y10_55 - y2_51 - y25_53 - y34_40 - y14_34 - y3_43 - y56_58 - y3_52 - y15_26 - y59_60 - y26_35 - y18_40 - y40_46 - y11_19 - y29_55 - y21_51 - y33_34 - y10_41 - y33_52 - y2_46 - y10_59 - y14_20 - y3_29 - y22_42 - y34_44 - y3_38 - y37_40 - y7_8
 Subject to
C1: x0+x3 <=1 
C2: x0+x5-y0_5 <=1 
C3: x0+x7 <=1 
C4: x0+x8-y0_8 <=1 
C5: x0+x11 <=1 
C6: x0+x13 <=1 
C7: x0+x14-y0_14 <=1 
C8: x0+x15 <=1 
C9: x0+x16 <=1 
C10: x0+x17-y0_17 <=1 
C11: x0+x19 <=1 
C12: x0+x20-y0_20 <=1 
C13: x0+x23 <=1 
C14: x0+x24 <=1 
C15: x0+x26-y0_26 <=1 
C16: x0+x27-y0_27 <=1 
C17: x0+x28 <=1 
C18: x0+x29-y0_29 <=1 
C19: x0+x32-y0_32 <=1 
C20: x0+x33 <=1 
C21: x0+x36 <=1 
C22: x0+x37-y0_37 <=1 
C23: x0+x38-y0_38 <=1 
C24: x0+x39 <=1 
C25: x0+x40-y0_40 <=1 
C26: x0+x42 <=1 
C27: x0+x43-y0_43 <=1 
C28: x0+x44-y0_44 <=1 
C29: x0+x46 <=1 
C30: x0+x47 <=1 
C31: x0+x51 <=1 
C32: x0+x52-y0_52 <=1 
C33: x0+x53 <=1 
C34: x0+x54 <=1 
C35: x0+x60-y0_60 <=1 
C36: x0+x61-y0_61 <=1 
C37: x1+x2-y1_2 <=1 
C38: x1+x3-y1_3 <=1 
C39: x1+x5-y1_5 <=1 
C40: x1+x6 <=1 
C41: x1+x7-y1_7 <=1 
C42: x1+x9-y1_9 <=1 
C43: x1+x10-y1_10 <=1 
C44: x1+x11 <=1 
C45: x1+x12-y1_12 <=1 
C46: x1+x13 <=1 
C47: x1+x14 <=1 
C48: x1+x15 <=1 
C49: x1+x16 <=1 
C50: x1+x17-y1_17 <=1 
C51: x1+x20-y1_20 <=1 
C52: x1+x21-y1_21 <=1 
C53: x1+x23 <=1 
C54: x1+x26 <=1 
C55: x1+x27 <=1 
C56: x1+x30 <=1 
C57: x1+x31 <=1 
C58: x1+x32 <=1 
C59: x1+x33-y1_33 <=1 
C60: x1+x34-y1_34 <=1 
C61: x1+x35-y1_35 <=1 
C62: x1+x36-y1_36 <=1 
C63: x1+x37 <=1 
C64: x1+x38-y1_38 <=1 
C65: x1+x40 <=1 
C66: x1+x41-y1_41 <=1 
C67: x1+x43 <=1 
C68: x1+x44-y1_44 <=1 
C69: x1+x45-y1_45 <=1 
C70: x1+x46-y1_46 <=1 
C71: x1+x47 <=1 
C72: x1+x49-y1_49 <=1 
C73: x1+x51-y1_51 <=1 
C74: x1+x52-y1_52 <=1 
C75: x1+x53-y1_53 <=1 
C76: x1+x54-y1_54 <=1 
C77: x2+x3 <=1 
C78: x2+x4 <=1 
C79: x2+x5-y2_5 <=1 
C80: x2+x7-y2_7 <=1 
C81: x2+x8 <=1 
C82: x2+x9-y2_9 <=1 
C83: x2+x10 <=1 
C84: x2+x11 <=1 
C85: x2+x15-y2_15 <=1 
C86: x2+x16-y2_16 <=1 
C87: x2+x19 <=1 
C88: x2+x21 <=1 
C89: x2+x22-y2_22 <=1 
C90: x2+x23-y2_23 <=1 
C91: x2+x25-y2_25 <=1 
C92: x2+x28-y2_28 <=1 
C93: x2+x29-y2_29 <=1 
C94: x2+x33-y2_33 <=1 
C95: x2+x34-y2_34 <=1 
C96: x2+x35 <=1 
C97: x2+x37 <=1 
C98: x2+x40 <=1 
C99: x2+x43 <=1 
C100: x2+x46-y2_46 <=1 
C101: x2+x47 <=1 
C102: x2+x48-y2_48 <=1 
C103: x2+x49-y2_49 <=1 
C104: x2+x50-y2_50 <=1 
C105: x2+x51-y2_51 <=1 
C106: x2+x52 <=1 
C107: x2+x53 <=1 
C108: x2+x54-y2_54 <=1 
C109: x2+x55 <=1 
C110: x2+x56-y2_56 <=1 
C111: x2+x58-y2_58 <=1 
C112: x2+x59-y2_59 <=1 
C113: x3+x4-y3_4 <=1 
C114: x3+x7 <=1 
C115: x3+x8 <=1 
C116: x3+x10 <=1 
C117: x3+x11 <=1 
C118: x3+x13 <=1 
C119: x3+x14 <=1 
C120: x3+x15 <=1 
C121: x3+x17-y3_17 <=1 
C122: x3+x19-y3_19 <=1 
C123: x3+x26-y3_26 <=1 
C124: x3+x27 <=1 
C125: x3+x28 <=1 
C126: x3+x29-y3_29 <=1 
C127: x3+x30-y3_30 <=1 
C128: x3+x33 <=1 
C129: x3+x38-y3_38 <=1 
C130: x3+x39 <=1 
C131: x3+x40 <=1 
C132: x3+x41 <=1 
C133: x3+x42-y3_42 <=1 
C134: x3+x43-y3_43 <=1 
C135: x3+x44 <=1 
C136: x3+x45 <=1 
C137: x3+x46-y3_46 <=1 
C138: x3+x47 <=1 
C139: x3+x48-y3_48 <=1 
C140: x3+x49-y3_49 <=1 
C141: x3+x50-y3_50 <=1 
C142: x3+x51 <=1 
C143: x3+x52-y3_52 <=1 
C144: x3+x53 <=1 
C145: x3+x54 <=1 
C146: x3+x58-y3_58 <=1 
C147: x3+x59-y3_59 <=1 
C148: x3+x60 <=1 
C149: x3+x61 <=1 
C150: x4+x5 <=1 
C151: x4+x9-y4_9 <=1 
C152: x4+x10-y4_10 <=1 
C153: x4+x11 <=1 
C154: x4+x13 <=1 
C155: x4+x14-y4_14 <=1 
C156: x4+x15 <=1 
C157: x4+x18 <=1 
C158: x4+x19-y4_19 <=1 
C159: x4+x21 <=1 
C160: x4+x23 <=1 
C161: x4+x26-y4_26 <=1 
C162: x4+x27 <=1 
C163: x4+x28 <=1 
C164: x4+x29-y4_29 <=1 
C165: x4+x30-y4_30 <=1 
C166: x4+x32-y4_32 <=1 
C167: x4+x33-y4_33 <=1 
C168: x4+x35-y4_35 <=1 
C169: x4+x37-y4_37 <=1 
C170: x4+x38-y4_38 <=1 
C171: x4+x39-y4_39 <=1 
C172: x4+x40-y4_40 <=1 
C173: x4+x41 <=1 
C174: x4+x42-y4_42 <=1 
C175: x4+x43 <=1 
C176: x4+x46-y4_46 <=1 
C177: x4+x47-y4_47 <=1 
C178: x4+x48 <=1 
C179: x4+x50 <=1 
C180: x4+x51-y4_51 <=1 
C181: x4+x53 <=1 
C182: x4+x54 <=1 
C183: x4+x56-y4_56 <=1 
C184: x4+x57-y4_57 <=1 
C185: x4+x59 <=1 
C186: x4+x61-y4_61 <=1 
C187: x5+x6 <=1 
C188: x5+x7 <=1 
C189: x5+x8-y5_8 <=1 
C190: x5+x10-y5_10 <=1 
C191: x5+x11-y5_11 <=1 
C192: x5+x12 <=1 
C193: x5+x15-y5_15 <=1 
C194: x5+x16 <=1 
C195: x5+x17-y5_17 <=1 
C196: x5+x19 <=1 
C197: x5+x22 <=1 
C198: x5+x23 <=1 
C199: x5+x24 <=1 
C200: x5+x25 <=1 
C201: x5+x27 <=1 
C202: x5+x28-y5_28 <=1 
C203: x5+x29 <=1 
C204: x5+x30-y5_30 <=1 
C205: x5+x33-y5_33 <=1 
C206: x5+x36-y5_36 <=1 
C207: x5+x38 <=1 
C208: x5+x39 <=1 
C209: x5+x41-y5_41 <=1 
C210: x5+x42 <=1 
C211: x5+x46 <=1 
C212: x5+x49 <=1 
C213: x5+x50 <=1 
C214: x5+x51 <=1 
C215: x5+x52-y5_52 <=1 
C216: x5+x55-y5_55 <=1 
C217: x5+x56 <=1 
C218: x5+x57-y5_57 <=1 
C219: x5+x60 <=1 
C220: x5+x61-y5_61 <=1 
C221: x6+x9 <=1 
C222: x6+x12-y6_12 <=1 
C223: x6+x13-y6_13 <=1 
C224: x6+x15 <=1 
C225: x6+x17-y6_17 <=1 
C226: x6+x20-y6_20 <=1 
C227: x6+x22-y6_22 <=1 
C228: x6+x23 <=1 
C229: x6+x24 <=1 
C230: x6+x26-y6_26 <=1 
C231: x6+x28 <=1 
C232: x6+x30 <=1 
C233: x6+x31 <=1 
C234: x6+x32-y6_32 <=1 
C235: x6+x33-y6_33 <=1 
C236: x6+x34-y6_34 <=1 
C237: x6+x35 <=1 
C238: x6+x36-y6_36 <=1 
C239: x6+x37 <=1 
C240: x6+x38 <=1 
C241: x6+x44 <=1 
C242: x6+x45-y6_45 <=1 
C243: x6+x46-y6_46 <=1 
C244: x6+x49-y6_49 <=1 
C245: x6+x51 <=1 
C246: x6+x52-y6_52 <=1 
C247: x6+x53 <=1 
C248: x6+x54-y6_54 <=1 
C249: x6+x57 <=1 
C250: x6+x59 <=1 
C251: x6+x61-y6_61 <=1 
C252: x7+x8-y7_8 <=1 
C253: x7+x11 <=1 
C254: x7+x14 <=1 
C255: x7+x16 <=1 
C256: x7+x17-y7_17 <=1 
C257: x7+x18 <=1 
C258: x7+x19 <=1 
C259: x7+x22 <=1 
C260: x7+x23-y7_23 <=1 
C261: x7+x25-y7_25 <=1 
C262: x7+x28-y7_28 <=1 
C263: x7+x29 <=1 
C264: x7+x34 <=1 
C265: x7+x35-y7_35 <=1 
C266: x7+x36-y7_36 <=1 
C267: x7+x38 <=1 
C268: x7+x39-y7_39 <=1 
C269: x7+x40 <=1 
C270: x7+x42-y7_42 <=1 
C271: x7+x43 <=1 
C272: x7+x44-y7_44 <=1 
C273: x7+x45-y7_45 <=1 
C274: x7+x46-y7_46 <=1 
C275: x7+x47 <=1 
C276: x7+x53-y7_53 <=1 
C277: x7+x55 <=1 
C278: x7+x56 <=1 
C279: x7+x57-y7_57 <=1 
C280: x7+x58-y7_58 <=1 
C281: x7+x59-y7_59 <=1 
C282: x7+x60 <=1 
C283: x8+x9 <=1 
C284: x8+x10-y8_10 <=1 
C285: x8+x13 <=1 
C286: x8+x15-y8_15 <=1 
C287: x8+x16-y8_16 <=1 
C288: x8+x20 <=1 
C289: x8+x21-y8_21 <=1 
C290: x8+x22-y8_22 <=1 
C291: x8+x28 <=1 
C292: x8+x29 <=1 
C293: x8+x31 <=1 
C294: x8+x33-y8_33 <=1 
C295: x8+x34 <=1 
C296: x8+x36-y8_36 <=1 
C297: x8+x37-y8_37 <=1 
C298: x8+x38 <=1 
C299: x8+x39-y8_39 <=1 
C300: x8+x41-y8_41 <=1 
C301: x8+x43 <=1 
C302: x8+x47 <=1 
C303: x8+x49 <=1 
C304: x8+x52-y8_52 <=1 
C305: x8+x53-y8_53 <=1 
C306: x8+x57-y8_57 <=1 
C307: x8+x58 <=1 
C308: x8+x61-y8_61 <=1 
C309: x9+x11 <=1 
C310: x9+x14 <=1 
C311: x9+x17-y9_17 <=1 
C312: x9+x19-y9_19 <=1 
C313: x9+x21-y9_21 <=1 
C314: x9+x24-y9_24 <=1 
C315: x9+x25 <=1 
C316: x9+x26-y9_26 <=1 
C317: x9+x27-y9_27 <=1 
C318: x9+x28-y9_28 <=1 
C319: x9+x31-y9_31 <=1 
C320: x9+x32 <=1 
C321: x9+x35 <=1 
C322: x9+x37-y9_37 <=1 
C323: x9+x38 <=1 
C324: x9+x39 <=1 
C325: x9+x40-y9_40 <=1 
C326: x9+x41 <=1 
C327: x9+x42-y9_42 <=1 
C328: x9+x44-y9_44 <=1 
C329: x9+x45 <=1 
C330: x9+x47-y9_47 <=1 
C331: x9+x48-y9_48 <=1 
C332: x9+x49 <=1 
C333: x9+x56 <=1 
C334: x9+x58 <=1 
C335: x9+x61-y9_61 <=1 
C336: x10+x11 <=1 
C337: x10+x12 <=1 
C338: x10+x14-y10_14 <=1 
C339: x10+x15 <=1 
C340: x10+x16-y10_16 <=1 
C341: x10+x18-y10_18 <=1 
C342: x10+x19 <=1 
C343: x10+x20 <=1 
C344: x10+x21-y10_21 <=1 
C345: x10+x22-y10_22 <=1 
C346: x10+x24-y10_24 <=1 
C347: x10+x26 <=1 
C348: x10+x28 <=1 
C349: x10+x29-y10_29 <=1 
C350: x10+x31-y10_31 <=1 
C351: x10+x33 <=1 
C352: x10+x36 <=1 
C353: x10+x37 <=1 
C354: x10+x38 <=1 
C355: x10+x39 <=1 
C356: x10+x40-y10_40 <=1 
C357: x10+x41-y10_41 <=1 
C358: x10+x42 <=1 
C359: x10+x44-y10_44 <=1 
C360: x10+x46 <=1 
C361: x10+x47-y10_47 <=1 
C362: x10+x48 <=1 
C363: x10+x50 <=1 
C364: x10+x51 <=1 
C365: x10+x54 <=1 
C366: x10+x55-y10_55 <=1 
C367: x10+x57-y10_57 <=1 
C368: x10+x59-y10_59 <=1 
C369: x10+x61 <=1 
C370: x11+x12 <=1 
C371: x11+x14 <=1 
C372: x11+x19-y11_19 <=1 
C373: x11+x20 <=1 
C374: x11+x21-y11_21 <=1 
C375: x11+x22-y11_22 <=1 
C376: x11+x24-y11_24 <=1 
C377: x11+x27-y11_27 <=1 
C378: x11+x28 <=1 
C379: x11+x30 <=1 
C380: x11+x31-y11_31 <=1 
C381: x11+x32-y11_32 <=1 
C382: x11+x33-y11_33 <=1 
C383: x11+x34 <=1 
C384: x11+x35 <=1 
C385: x11+x36 <=1 
C386: x11+x37 <=1 
C387: x11+x38 <=1 
C388: x11+x39-y11_39 <=1 
C389: x11+x41-y11_41 <=1 
C390: x11+x43-y11_43 <=1 
C391: x11+x44 <=1 
C392: x11+x47 <=1 
C393: x11+x49-y11_49 <=1 
C394: x11+x51 <=1 
C395: x11+x53-y11_53 <=1 
C396: x11+x55-y11_55 <=1 
C397: x11+x59-y11_59 <=1 
C398: x11+x60-y11_60 <=1 
C399: x12+x15 <=1 
C400: x12+x16 <=1 
C401: x12+x17-y12_17 <=1 
C402: x12+x18 <=1 
C403: x12+x23-y12_23 <=1 
C404: x12+x24 <=1 
C405: x12+x25-y12_25 <=1 
C406: x12+x26-y12_26 <=1 
C407: x12+x27 <=1 
C408: x12+x30 <=1 
C409: x12+x31 <=1 
C410: x12+x32 <=1 
C411: x12+x33 <=1 
C412: x12+x34 <=1 
C413: x12+x37 <=1 
C414: x12+x38-y12_38 <=1 
C415: x12+x42-y12_42 <=1 
C416: x12+x45-y12_45 <=1 
C417: x12+x47 <=1 
C418: x12+x48 <=1 
C419: x12+x49 <=1 
C420: x12+x51-y12_51 <=1 
C421: x12+x52-y12_52 <=1 
C422: x12+x53 <=1 
C423: x12+x61-y12_61 <=1 
C424: x13+x14 <=1 
C425: x13+x15 <=1 
C426: x13+x20 <=1 
C427: x13+x21 <=1 
C428: x13+x22 <=1 
C429: x13+x23 <=1 
C430: x13+x24 <=1 
C431: x13+x25 <=1 
C432: x13+x26-y13_26 <=1 
C433: x13+x27-y13_27 <=1 
C434: x13+x29 <=1 
C435: x13+x30 <=1 
C436: x13+x32-y13_32 <=1 
C437: x13+x33-y13_33 <=1 
C438: x13+x34 <=1 
C439: x13+x36 <=1 
C440: x13+x41-y13_41 <=1 
C441: x13+x42 <=1 
C442: x13+x43-y13_43 <=1 
C443: x13+x45-y13_45 <=1 
C444: x13+x46-y13_46 <=1 
C445: x13+x48-y13_48 <=1 
C446: x13+x49 <=1 
C447: x13+x50 <=1 
C448: x13+x53 <=1 
C449: x13+x54 <=1 
C450: x13+x56 <=1 
C451: x13+x57-y13_57 <=1 
C452: x13+x60 <=1 
C453: x14+x16 <=1 
C454: x14+x20-y14_20 <=1 
C455: x14+x21-y14_21 <=1 
C456: x14+x22-y14_22 <=1 
C457: x14+x23-y14_23 <=1 
C458: x14+x24-y14_24 <=1 
C459: x14+x26 <=1 
C460: x14+x28-y14_28 <=1 
C461: x14+x30-y14_30 <=1 
C462: x14+x31 <=1 
C463: x14+x32 <=1 
C464: x14+x34-y14_34 <=1 
C465: x14+x36 <=1 
C466: x14+x37-y14_37 <=1 
C467: x14+x40-y14_40 <=1 
C468: x14+x41 <=1 
C469: x14+x42 <=1 
C470: x14+x43 <=1 
C471: x14+x44-y14_44 <=1 
C472: x14+x45 <=1 
C473: x14+x47 <=1 
C474: x14+x48 <=1 
C475: x14+x49 <=1 
C476: x14+x51 <=1 
C477: x14+x54 <=1 
C478: x14+x55 <=1 
C479: x14+x58-y14_58 <=1 
C480: x14+x60-y14_60 <=1 
C481: x14+x61 <=1 
C482: x15+x16-y15_16 <=1 
C483: x15+x18 <=1 
C484: x15+x20 <=1 
C485: x15+x21 <=1 
C486: x15+x22 <=1 
C487: x15+x23 <=1 
C488: x15+x24-y15_24 <=1 
C489: x15+x25-y15_25 <=1 
C490: x15+x26-y15_26 <=1 
C491: x15+x28 <=1 
C492: x15+x29-y15_29 <=1 
C493: x15+x30 <=1 
C494: x15+x31-y15_31 <=1 
C495: x15+x33 <=1 
C496: x15+x35 <=1 
C497: x15+x37 <=1 
C498: x15+x38-y15_38 <=1 
C499: x15+x39 <=1 
C500: x15+x41-y15_41 <=1 
C501: x15+x42 <=1 
C502: x15+x44 <=1 
C503: x15+x46-y15_46 <=1 
C504: x15+x47-y15_47 <=1 
C505: x15+x48 <=1 
C506: x15+x49 <=1 
C507: x15+x50 <=1 
C508: x15+x51-y15_51 <=1 
C509: x15+x53-y15_53 <=1 
C510: x15+x55 <=1 
C511: x15+x56 <=1 
C512: x15+x57-y15_57 <=1 
C513: x15+x58 <=1 
C514: x15+x59-y15_59 <=1 
C515: x15+x61 <=1 
C516: x16+x17 <=1 
C517: x16+x20-y16_20 <=1 
C518: x16+x21 <=1 
C519: x16+x22 <=1 
C520: x16+x24-y16_24 <=1 
C521: x16+x25 <=1 
C522: x16+x26-y16_26 <=1 
C523: x16+x27 <=1 
C524: x16+x29-y16_29 <=1 
C525: x16+x30 <=1 
C526: x16+x31 <=1 
C527: x16+x32-y16_32 <=1 
C528: x16+x33-y16_33 <=1 
C529: x16+x35-y16_35 <=1 
C530: x16+x36-y16_36 <=1 
C531: x16+x37 <=1 
C532: x16+x38 <=1 
C533: x16+x39 <=1 
C534: x16+x40-y16_40 <=1 
C535: x16+x42-y16_42 <=1 
C536: x16+x43 <=1 
C537: x16+x44 <=1 
C538: x16+x45-y16_45 <=1 
C539: x16+x46 <=1 
C540: x16+x47 <=1 
C541: x16+x50 <=1 
C542: x16+x53-y16_53 <=1 
C543: x16+x55-y16_55 <=1 
C544: x16+x58-y16_58 <=1 
C545: x16+x59-y16_59 <=1 
C546: x16+x60 <=1 
C547: x16+x61-y16_61 <=1 
C548: x17+x18 <=1 
C549: x17+x19 <=1 
C550: x17+x20-y17_20 <=1 
C551: x17+x21-y17_21 <=1 
C552: x17+x22-y17_22 <=1 
C553: x17+x23 <=1 
C554: x17+x24 <=1 
C555: x17+x25 <=1 
C556: x17+x29 <=1 
C557: x17+x30 <=1 
C558: x17+x31 <=1 
C559: x17+x32-y17_32 <=1 
C560: x17+x34 <=1 
C561: x17+x35-y17_35 <=1 
C562: x17+x36 <=1 
C563: x17+x38 <=1 
C564: x17+x39-y17_39 <=1 
C565: x17+x41-y17_41 <=1 
C566: x17+x42-y17_42 <=1 
C567: x17+x43 <=1 
C568: x17+x44-y17_44 <=1 
C569: x17+x45-y17_45 <=1 
C570: x17+x46-y17_46 <=1 
C571: x17+x47 <=1 
C572: x17+x49-y17_49 <=1 
C573: x17+x51-y17_51 <=1 
C574: x17+x52-y17_52 <=1 
C575: x17+x53 <=1 
C576: x17+x54-y17_54 <=1 
C577: x17+x56 <=1 
C578: x17+x57-y17_57 <=1 
C579: x17+x60 <=1 
C580: x18+x21-y18_21 <=1 
C581: x18+x22 <=1 
C582: x18+x23-y18_23 <=1 
C583: x18+x24-y18_24 <=1 
C584: x18+x26 <=1 
C585: x18+x27-y18_27 <=1 
C586: x18+x28 <=1 
C587: x18+x30-y18_30 <=1 
C588: x18+x31 <=1 
C589: x18+x33 <=1 
C590: x18+x34-y18_34 <=1 
C591: x18+x35-y18_35 <=1 
C592: x18+x37 <=1 
C593: x18+x40-y18_40 <=1 
C594: x18+x42-y18_42 <=1 
C595: x18+x43-y18_43 <=1 
C596: x18+x44 <=1 
C597: x18+x45 <=1 
C598: x18+x46-y18_46 <=1 
C599: x18+x47 <=1 
C600: x18+x48-y18_48 <=1 
C601: x18+x49 <=1 
C602: x18+x50-y18_50 <=1 
C603: x18+x52 <=1 
C604: x18+x54-y18_54 <=1 
C605: x18+x57-y18_57 <=1 
C606: x18+x58 <=1 
C607: x18+x59 <=1 
C608: x19+x20-y19_20 <=1 
C609: x19+x22-y19_22 <=1 
C610: x19+x24 <=1 
C611: x19+x26-y19_26 <=1 
C612: x19+x27 <=1 
C613: x19+x28-y19_28 <=1 
C614: x19+x30 <=1 
C615: x19+x32-y19_32 <=1 
C616: x19+x39-y19_39 <=1 
C617: x19+x41 <=1 
C618: x19+x42 <=1 
C619: x19+x45 <=1 
C620: x19+x46 <=1 
C621: x19+x47 <=1 
C622: x19+x48 <=1 
C623: x19+x49-y19_49 <=1 
C624: x19+x50-y19_50 <=1 
C625: x19+x51-y19_51 <=1 
C626: x19+x52 <=1 
C627: x19+x53 <=1 
C628: x19+x56-y19_56 <=1 
C629: x19+x57 <=1 
C630: x19+x59 <=1 
C631: x20+x21-y20_21 <=1 
C632: x20+x22 <=1 
C633: x20+x24 <=1 
C634: x20+x28 <=1 
C635: x20+x29-y20_29 <=1 
C636: x20+x31-y20_31 <=1 
C637: x20+x34-y20_34 <=1 
C638: x20+x35-y20_35 <=1 
C639: x20+x37-y20_37 <=1 
C640: x20+x38-y20_38 <=1 
C641: x20+x40-y20_40 <=1 
C642: x20+x41-y20_41 <=1 
C643: x20+x42-y20_42 <=1 
C644: x20+x43 <=1 
C645: x20+x44 <=1 
C646: x20+x46 <=1 
C647: x20+x51-y20_51 <=1 
C648: x20+x52-y20_52 <=1 
C649: x20+x53 <=1 
C650: x20+x54 <=1 
C651: x20+x56-y20_56 <=1 
C652: x20+x60 <=1 
C653: x20+x61 <=1 
C654: x21+x25 <=1 
C655: x21+x26-y21_26 <=1 
C656: x21+x27 <=1 
C657: x21+x29-y21_29 <=1 
C658: x21+x30 <=1 
C659: x21+x32-y21_32 <=1 
C660: x21+x35 <=1 
C661: x21+x36 <=1 
C662: x21+x38 <=1 
C663: x21+x41-y21_41 <=1 
C664: x21+x44-y21_44 <=1 
C665: x21+x46 <=1 
C666: x21+x47 <=1 
C667: x21+x49 <=1 
C668: x21+x50-y21_50 <=1 
C669: x21+x51-y21_51 <=1 
C670: x21+x52 <=1 
C671: x21+x53 <=1 
C672: x21+x56 <=1 
C673: x21+x57 <=1 
C674: x21+x59 <=1 
C675: x21+x61 <=1 
C676: x22+x26-y22_26 <=1 
C677: x22+x28-y22_28 <=1 
C678: x22+x30-y22_30 <=1 
C679: x22+x31-y22_31 <=1 
C680: x22+x32-y22_32 <=1 
C681: x22+x34 <=1 
C682: x22+x35 <=1 
C683: x22+x36-y22_36 <=1 
C684: x22+x40-y22_40 <=1 
C685: x22+x42-y22_42 <=1 
C686: x22+x43-y22_43 <=1 
C687: x22+x45 <=1 
C688: x22+x47 <=1 
C689: x22+x50 <=1 
C690: x22+x53-y22_53 <=1 
C691: x22+x55-y22_55 <=1 
C692: x22+x56 <=1 
C693: x22+x58 <=1 
C694: x22+x60 <=1 
C695: x22+x61 <=1 
C696: x23+x24 <=1 
C697: x23+x26 <=1 
C698: x23+x29-y23_29 <=1 
C699: x23+x30 <=1 
C700: x23+x31 <=1 
C701: x23+x32-y23_32 <=1 
C702: x23+x34-y23_34 <=1 
C703: x23+x35 <=1 
C704: x23+x36-y23_36 <=1 
C705: x23+x37-y23_37 <=1 
C706: x23+x38-y23_38 <=1 
C707: x23+x39 <=1 
C708: x23+x40 <=1 
C709: x23+x42 <=1 
C710: x23+x44 <=1 
C711: x23+x46 <=1 
C712: x23+x47 <=1 
C713: x23+x48 <=1 
C714: x23+x51 <=1 
C715: x23+x54-y23_54 <=1 
C716: x23+x55-y23_55 <=1 
C717: x23+x58 <=1 
C718: x23+x59 <=1 
C719: x23+x60 <=1 
C720: x24+x25 <=1 
C721: x24+x27-y24_27 <=1 
C722: x24+x31-y24_31 <=1 
C723: x24+x32-y24_32 <=1 
C724: x24+x35-y24_35 <=1 
C725: x24+x39 <=1 
C726: x24+x41-y24_41 <=1 
C727: x24+x44-y24_44 <=1 
C728: x24+x47-y24_47 <=1 
C729: x24+x48 <=1 
C730: x24+x49-y24_49 <=1 
C731: x24+x50-y24_50 <=1 
C732: x24+x51 <=1 
C733: x24+x52-y24_52 <=1 
C734: x24+x53 <=1 
C735: x24+x54-y24_54 <=1 
C736: x24+x55 <=1 
C737: x24+x60-y24_60 <=1 
C738: x24+x61 <=1 
C739: x25+x26 <=1 
C740: x25+x28 <=1 
C741: x25+x29 <=1 
C742: x25+x30 <=1 
C743: x25+x32-y25_32 <=1 
C744: x25+x33-y25_33 <=1 
C745: x25+x34 <=1 
C746: x25+x35-y25_35 <=1 
C747: x25+x36-y25_36 <=1 
C748: x25+x40 <=1 
C749: x25+x42 <=1 
C750: x25+x43-y25_43 <=1 
C751: x25+x44-y25_44 <=1 
C752: x25+x45 <=1 
C753: x25+x46 <=1 
C754: x25+x47-y25_47 <=1 
C755: x25+x48 <=1 
C756: x25+x49 <=1 
C757: x25+x52-y25_52 <=1 
C758: x25+x53-y25_53 <=1 
C759: x25+x56 <=1 
C760: x25+x57 <=1 
C761: x25+x60-y25_60 <=1 
C762: x25+x61 <=1 
C763: x26+x28 <=1 
C764: x26+x29-y26_29 <=1 
C765: x26+x30 <=1 
C766: x26+x32 <=1 
C767: x26+x33 <=1 
C768: x26+x34-y26_34 <=1 
C769: x26+x35-y26_35 <=1 
C770: x26+x36-y26_36 <=1 
C771: x26+x37-y26_37 <=1 
C772: x26+x38-y26_38 <=1 
C773: x26+x39 <=1 
C774: x26+x40-y26_40 <=1 
C775: x26+x41 <=1 
C776: x26+x42-y26_42 <=1 
C777: x26+x43 <=1 
C778: x26+x45-y26_45 <=1 
C779: x26+x46-y26_46 <=1 
C780: x26+x47 <=1 
C781: x26+x49 <=1 
C782: x26+x50-y26_50 <=1 
C783: x26+x52 <=1 
C784: x26+x53-y26_53 <=1 
C785: x26+x55-y26_55 <=1 
C786: x26+x56 <=1 
C787: x26+x58 <=1 
C788: x26+x59 <=1 
C789: x27+x29-y27_29 <=1 
C790: x27+x30-y27_30 <=1 
C791: x27+x31-y27_31 <=1 
C792: x27+x33-y27_33 <=1 
C793: x27+x34-y27_34 <=1 
C794: x27+x36 <=1 
C795: x27+x38-y27_38 <=1 
C796: x27+x39-y27_39 <=1 
C797: x27+x42-y27_42 <=1 
C798: x27+x43 <=1 
C799: x27+x44-y27_44 <=1 
C800: x27+x45 <=1 
C801: x27+x47 <=1 
C802: x27+x48 <=1 
C803: x27+x49-y27_49 <=1 
C804: x27+x51 <=1 
C805: x27+x54 <=1 
C806: x27+x55-y27_55 <=1 
C807: x27+x56 <=1 
C808: x27+x58-y27_58 <=1 
C809: x28+x29-y28_29 <=1 
C810: x28+x30 <=1 
C811: x28+x31 <=1 
C812: x28+x32-y28_32 <=1 
C813: x28+x33 <=1 
C814: x28+x34-y28_34 <=1 
C815: x28+x36-y28_36 <=1 
C816: x28+x37 <=1 
C817: x28+x38-y28_38 <=1 
C818: x28+x43-y28_43 <=1 
C819: x28+x44-y28_44 <=1 
C820: x28+x46-y28_46 <=1 
C821: x28+x47 <=1 
C822: x28+x51-y28_51 <=1 
C823: x28+x54-y28_54 <=1 
C824: x28+x55-y28_55 <=1 
C825: x28+x57-y28_57 <=1 
C826: x28+x58 <=1 
C827: x28+x61-y28_61 <=1 
C828: x29+x31 <=1 
C829: x29+x32-y29_32 <=1 
C830: x29+x33 <=1 
C831: x29+x34-y29_34 <=1 
C832: x29+x35 <=1 
C833: x29+x36 <=1 
C834: x29+x38 <=1 
C835: x29+x40-y29_40 <=1 
C836: x29+x41-y29_41 <=1 
C837: x29+x42 <=1 
C838: x29+x43-y29_43 <=1 
C839: x29+x46 <=1 
C840: x29+x47-y29_47 <=1 
C841: x29+x50-y29_50 <=1 
C842: x29+x52-y29_52 <=1 
C843: x29+x53 <=1 
C844: x29+x55-y29_55 <=1 
C845: x29+x58-y29_58 <=1 
C846: x29+x59 <=1 
C847: x29+x60-y29_60 <=1 
C848: x29+x61 <=1 
C849: x30+x31-y30_31 <=1 
C850: x30+x36-y30_36 <=1 
C851: x30+x38-y30_38 <=1 
C852: x30+x41 <=1 
C853: x30+x42-y30_42 <=1 
C854: x30+x44 <=1 
C855: x30+x47-y30_47 <=1 
C856: x30+x49 <=1 
C857: x30+x50 <=1 
C858: x30+x54 <=1 
C859: x30+x55-y30_55 <=1 
C860: x30+x57-y30_57 <=1 
C861: x30+x58-y30_58 <=1 
C862: x30+x59 <=1 
C863: x30+x60 <=1 
C864: x30+x61-y30_61 <=1 
C865: x31+x34 <=1 
C866: x31+x35-y31_35 <=1 
C867: x31+x36 <=1 
C868: x31+x37-y31_37 <=1 
C869: x31+x38-y31_38 <=1 
C870: x31+x39-y31_39 <=1 
C871: x31+x41-y31_41 <=1 
C872: x31+x43 <=1 
C873: x31+x45 <=1 
C874: x31+x46-y31_46 <=1 
C875: x31+x47-y31_47 <=1 
C876: x31+x50 <=1 
C877: x31+x51-y31_51 <=1 
C878: x31+x52-y31_52 <=1 
C879: x31+x54-y31_54 <=1 
C880: x31+x55 <=1 
C881: x31+x57-y31_57 <=1 
C882: x31+x58-y31_58 <=1 
C883: x31+x59-y31_59 <=1 
C884: x31+x60-y31_60 <=1 
C885: x31+x61-y31_61 <=1 
C886: x32+x33 <=1 
C887: x32+x34 <=1 
C888: x32+x35 <=1 
C889: x32+x37 <=1 
C890: x32+x41 <=1 
C891: x32+x43 <=1 
C892: x32+x44-y32_44 <=1 
C893: x32+x45 <=1 
C894: x32+x46 <=1 
C895: x32+x48 <=1 
C896: x32+x49 <=1 
C897: x32+x51-y32_51 <=1 
C898: x32+x53 <=1 
C899: x32+x57-y32_57 <=1 
C900: x32+x58-y32_58 <=1 
C901: x32+x59-y32_59 <=1 
C902: x32+x60-y32_60 <=1 
C903: x33+x34-y33_34 <=1 
C904: x33+x35 <=1 
C905: x33+x37 <=1 
C906: x33+x38 <=1 
C907: x33+x40-y33_40 <=1 
C908: x33+x41-y33_41 <=1 
C909: x33+x42 <=1 
C910: x33+x43 <=1 
C911: x33+x44 <=1 
C912: x33+x45-y33_45 <=1 
C913: x33+x46-y33_46 <=1 
C914: x33+x47-y33_47 <=1 
C915: x33+x48-y33_48 <=1 
C916: x33+x50 <=1 
C917: x33+x52-y33_52 <=1 
C918: x33+x53-y33_53 <=1 
C919: x33+x54 <=1 
C920: x33+x55 <=1 
C921: x33+x59-y33_59 <=1 
C922: x33+x60-y33_60 <=1 
C923: x34+x35 <=1 
C924: x34+x36-y34_36 <=1 
C925: x34+x37 <=1 
C926: x34+x39-y34_39 <=1 
C927: x34+x40-y34_40 <=1 
C928: x34+x41-y34_41 <=1 
C929: x34+x42 <=1 
C930: x34+x44-y34_44 <=1 
C931: x34+x45 <=1 
C932: x34+x46 <=1 
C933: x34+x50 <=1 
C934: x34+x51-y34_51 <=1 
C935: x34+x52-y34_52 <=1 
C936: x34+x53 <=1 
C937: x34+x57-y34_57 <=1 
C938: x34+x60 <=1 
C939: x34+x61-y34_61 <=1 
C940: x35+x36-y35_36 <=1 
C941: x35+x38 <=1 
C942: x35+x39 <=1 
C943: x35+x42-y35_42 <=1 
C944: x35+x43 <=1 
C945: x35+x44 <=1 
C946: x35+x45 <=1 
C947: x35+x46-y35_46 <=1 
C948: x35+x47-y35_47 <=1 
C949: x35+x49-y35_49 <=1 
C950: x35+x50-y35_50 <=1 
C951: x35+x51 <=1 
C952: x35+x55-y35_55 <=1 
C953: x35+x56-y35_56 <=1 
C954: x35+x58-y35_58 <=1 
C955: x35+x59 <=1 
C956: x35+x60-y35_60 <=1 
C957: x36+x40-y36_40 <=1 
C958: x36+x41 <=1 
C959: x36+x42-y36_42 <=1 
C960: x36+x43-y36_43 <=1 
C961: x36+x44-y36_44 <=1 
C962: x36+x46 <=1 
C963: x36+x47-y36_47 <=1 
C964: x36+x48 <=1 
C965: x36+x49 <=1 
C966: x36+x51-y36_51 <=1 
C967: x36+x53 <=1 
C968: x36+x54 <=1 
C969: x36+x56-y36_56 <=1 
C970: x36+x57-y36_57 <=1 
C971: x36+x59 <=1 
C972: x36+x61 <=1 
C973: x37+x39-y37_39 <=1 
C974: x37+x40-y37_40 <=1 
C975: x37+x42-y37_42 <=1 
C976: x37+x44-y37_44 <=1 
C977: x37+x45 <=1 
C978: x37+x46-y37_46 <=1 
C979: x37+x49 <=1 
C980: x37+x51-y37_51 <=1 
C981: x37+x56 <=1 
C982: x37+x57 <=1 
C983: x37+x58-y37_58 <=1 
C984: x37+x59-y37_59 <=1 
C985: x37+x61-y37_61 <=1 
C986: x38+x39 <=1 
C987: x38+x40 <=1 
C988: x38+x42-y38_42 <=1 
C989: x38+x43 <=1 
C990: x38+x45-y38_45 <=1 
C991: x38+x46 <=1 
C992: x38+x49 <=1 
C993: x38+x50 <=1 
C994: x38+x51 <=1 
C995: x38+x52-y38_52 <=1 
C996: x38+x53-y38_53 <=1 
C997: x38+x54 <=1 
C998: x38+x57-y38_57 <=1 
C999: x38+x58 <=1 
C1000: x38+x59-y38_59 <=1 
C1001: x38+x61 <=1 
C1002: x39+x40 <=1 
C1003: x39+x42 <=1 
C1004: x39+x43 <=1 
C1005: x39+x45 <=1 
C1006: x39+x46 <=1 
C1007: x39+x48-y39_48 <=1 
C1008: x39+x51 <=1 
C1009: x39+x53-y39_53 <=1 
C1010: x39+x54-y39_54 <=1 
C1011: x39+x56 <=1 
C1012: x39+x57 <=1 
C1013: x39+x58-y39_58 <=1 
C1014: x39+x59-y39_59 <=1 
C1015: x40+x43-y40_43 <=1 
C1016: x40+x46-y40_46 <=1 
C1017: x40+x47 <=1 
C1018: x40+x49-y40_49 <=1 
C1019: x40+x51 <=1 
C1020: x40+x52-y40_52 <=1 
C1021: x40+x54 <=1 
C1022: x40+x55 <=1 
C1023: x40+x57 <=1 
C1024: x40+x59-y40_59 <=1 
C1025: x40+x60-y40_60 <=1 
C1026: x41+x44 <=1 
C1027: x41+x46 <=1 
C1028: x41+x47 <=1 
C1029: x41+x49 <=1 
C1030: x41+x50-y41_50 <=1 
C1031: x41+x51-y41_51 <=1 
C1032: x41+x52 <=1 
C1033: x41+x53-y41_53 <=1 
C1034: x41+x55 <=1 
C1035: x41+x58 <=1 
C1036: x41+x59 <=1 
C1037: x41+x61-y41_61 <=1 
C1038: x42+x45-y42_45 <=1 
C1039: x42+x47 <=1 
C1040: x42+x48 <=1 
C1041: x42+x51 <=1 
C1042: x42+x55 <=1 
C1043: x42+x59-y42_59 <=1 
C1044: x42+x60-y42_60 <=1 
C1045: x43+x44 <=1 
C1046: x43+x45-y43_45 <=1 
C1047: x43+x46 <=1 
C1048: x43+x50 <=1 
C1049: x43+x51 <=1 
C1050: x43+x52-y43_52 <=1 
C1051: x43+x53-y43_53 <=1 
C1052: x43+x55-y43_55 <=1 
C1053: x43+x56-y43_56 <=1 
C1054: x43+x61 <=1 
C1055: x44+x45-y44_45 <=1 
C1056: x44+x49 <=1 
C1057: x44+x50 <=1 
C1058: x44+x52 <=1 
C1059: x44+x53 <=1 
C1060: x44+x54 <=1 
C1061: x44+x55-y44_55 <=1 
C1062: x44+x56-y44_56 <=1 
C1063: x44+x60-y44_60 <=1 
C1064: x44+x61 <=1 
C1065: x45+x47-y45_47 <=1 
C1066: x45+x50 <=1 
C1067: x45+x51 <=1 
C1068: x45+x55 <=1 
C1069: x45+x57-y45_57 <=1 
C1070: x45+x58 <=1 
C1071: x45+x61 <=1 
C1072: x46+x51 <=1 
C1073: x46+x53 <=1 
C1074: x46+x54 <=1 
C1075: x46+x55-y46_55 <=1 
C1076: x46+x57-y46_57 <=1 
C1077: x46+x59 <=1 
C1078: x46+x60-y46_60 <=1 
C1079: x47+x48-y47_48 <=1 
C1080: x47+x50 <=1 
C1081: x47+x52-y47_52 <=1 
C1082: x47+x55 <=1 
C1083: x47+x56 <=1 
C1084: x47+x57-y47_57 <=1 
C1085: x47+x58-y47_58 <=1 
C1086: x47+x60 <=1 
C1087: x48+x49-y48_49 <=1 
C1088: x48+x50 <=1 
C1089: x48+x51 <=1 
C1090: x48+x53-y48_53 <=1 
C1091: x48+x54 <=1 
C1092: x48+x55 <=1 
C1093: x48+x58-y48_58 <=1 
C1094: x48+x59 <=1 
C1095: x48+x60-y48_60 <=1 
C1096: x48+x61-y48_61 <=1 
C1097: x49+x50 <=1 
C1098: x49+x51 <=1 
C1099: x49+x55-y49_55 <=1 
C1100: x49+x57-y49_57 <=1 
C1101: x49+x60-y49_60 <=1 
C1102: x49+x61 <=1 
C1103: x50+x51 <=1 
C1104: x50+x52 <=1 
C1105: x50+x54-y50_54 <=1 
C1106: x50+x55-y50_55 <=1 
C1107: x50+x56 <=1 
C1108: x50+x57-y50_57 <=1 
C1109: x50+x58 <=1 
C1110: x50+x60-y50_60 <=1 
C1111: x51+x55 <=1 
C1112: x51+x56 <=1 
C1113: x51+x57 <=1 
C1114: x51+x59-y51_59 <=1 
C1115: x52+x54 <=1 
C1116: x52+x58-y52_58 <=1 
C1117: x52+x60 <=1 
C1118: x53+x54 <=1 
C1119: x53+x55-y53_55 <=1 
C1120: x53+x56-y53_56 <=1 
C1121: x53+x58 <=1 
C1122: x53+x60-y53_60 <=1 
C1123: x53+x61-y53_61 <=1 
C1124: x54+x55-y54_55 <=1 
C1125: x54+x57 <=1 
C1126: x54+x58 <=1 
C1127: x55+x56 <=1 
C1128: x55+x59 <=1 
C1129: x55+x60 <=1 
C1130: x55+x61-y55_61 <=1 
C1131: x56+x58-y56_58 <=1 
C1132: x56+x59 <=1 
C1133: x56+x60 <=1 
C1134: x56+x61 <=1 
C1135: x57+x58-y57_58 <=1 
C1136: x57+x59 <=1 
C1137: x57+x60 <=1 
C1138: x57+x61-y57_61 <=1 
C1139: x58+x59 <=1 
C1140: x58+x60 <=1 
C1141: x59+x60-y59_60 <=1 
C1142: x59+x61 <=1 

binary
x0
x1
x2
x3
x4
x5
x6
x7
x8
x9
x10
x11
x12
x13
x14
x15
x16
x17
x18
x19
x20
x21
x22
x23
x24
x25
x26
x27
x28
x29
x30
x31
x32
x33
x34
x35
x36
x37
x38
x39
x40
x41
x42
x43
x44
x45
x46
x47
x48
x49
x50
x51
x52
x53
x54
x55
x56
x57
x58
x59
x60
x61
