problem_generation/data/GISP/train/er_n=62_m=1142_p=0.60_SET2_setparam=100.00_alpha=0.50_292.sol
objective value:                                 1171
x1                                                  1 	(obj:100)
x3                                                  1 	(obj:100)
x4                                                  1 	(obj:100)
x24                                                 1 	(obj:100)
x35                                                 1 	(obj:100)
x42                                                 1 	(obj:100)
x46                                                 1 	(obj:100)
x49                                                 1 	(obj:100)
x52                                                 1 	(obj:100)
x56                                                 1 	(obj:100)
x57                                                 1 	(obj:100)
x58                                                 1 	(obj:100)
y3_42                                               1 	(obj:-1)
y35_46                                              1 	(obj:-1)
y3_4                                                1 	(obj:-1)
y1_52                                               1 	(obj:-1)
y24_49                                              1 	(obj:-1)
y35_49                                              1 	(obj:-1)
y35_58                                              1 	(obj:-1)
y4_57                                               1 	(obj:-1)
y24_35                                              1 	(obj:-1)
y1_46                                               1 	(obj:-1)
y57_58                                              1 	(obj:-1)
y3_46                                               1 	(obj:-1)
y52_58                                              1 	(obj:-1)
y3_49                                               1 	(obj:-1)
y4_56                                               1 	(obj:-1)
y24_52                                              1 	(obj:-1)
y4_42                                               1 	(obj:-1)
y35_56                                              1 	(obj:-1)
y4_46                                               1 	(obj:-1)
y35_42                                              1 	(obj:-1)
y1_49                                               1 	(obj:-1)
y46_57                                              1 	(obj:-1)
y1_35                                               1 	(obj:-1)
y49_57                                              1 	(obj:-1)
y1_3                                                1 	(obj:-1)
y3_58                                               1 	(obj:-1)
y4_35                                               1 	(obj:-1)
y56_58                                              1 	(obj:-1)
y3_52                                               1 	(obj:-1)
